(set-logic QF_LIA)
(declare-fun x0 () Int)
(declare-fun x1 () Int)
(declare-fun x2 () Int)
(declare-fun x3 () Int)
(declare-fun x4 () Int)
(declare-fun x5 () Int)
(declare-fun x6 () Int)
(declare-fun x7 () Int)
(declare-fun x8 () Int)
(declare-fun x9 () Int)
(declare-fun A0 () Bool)
(declare-fun A1 () Bool)
(declare-fun A2 () Bool)
(declare-fun A3 () Bool)
(declare-fun A4 () Bool)
(declare-fun A5 () Bool)
(declare-fun A6 () Bool)
(declare-fun A7 () Bool)
(declare-fun A8 () Bool)
(declare-fun A9 () Bool)
(assert (let ((.def_0 (not A7))) (let ((.def_1 (and .def_0 A9))) (let ((.def_2 (not .def_1))) (let ((.def_3 (* 1 x7))) (let ((.def_4 (* 1 x1))) (let ((.def_5 (+ .def_4 .def_3))) (let ((.def_6 (< .def_5 (- 1)))) (let ((.def_7 (and .def_6 A6))) (let ((.def_8 (not .def_7))) (let ((.def_9 (or .def_8 .def_2))) (let ((.def_10 (not .def_9))) (let ((.def_11 (* (- 1) x3))) (let ((.def_12 (< .def_11 1))) (let ((.def_13 (not .def_12))) (let ((.def_14 (not A5))) (let ((.def_15 (or .def_14 .def_13))) (let ((.def_16 (* (- 1) x0))) (let ((.def_17 (* (- 1) x2))) (let ((.def_18 (+ .def_17 .def_16))) (let ((.def_19 (< .def_18 1))) (let ((.def_20 (or A2 .def_19))) (let ((.def_21 (not .def_20))) (let ((.def_22 (and .def_21 .def_15))) (let ((.def_23 (not .def_22))) (let ((.def_24 (and .def_23 .def_10))) (let ((.def_25 (= A5 A4))) (let ((.def_26 (not .def_25))) (let ((.def_27 (< .def_16 (- 1)))) (let ((.def_28 (* (- 1) x7))) (let ((.def_29 (< .def_28 1))) (let ((.def_30 (not .def_29))) (let ((.def_31 (and .def_30 .def_27))) (let ((.def_32 (and .def_31 .def_26))) (let ((.def_33 (* 1 x4))) (let ((.def_34 (< .def_33 1))) (let ((.def_35 (not .def_34))) (let ((.def_36 (+ .def_11 .def_33))) (let ((.def_37 (< .def_36 (- 1)))) (let ((.def_38 (and .def_37 .def_35))) (let ((.def_39 (not .def_38))) (let ((.def_40 (not A0))) (let ((.def_41 (< .def_33 (- 1)))) (let ((.def_42 (or .def_41 .def_40))) (let ((.def_43 (not .def_42))) (let ((.def_44 (and .def_43 .def_39))) (let ((.def_45 (and .def_44 .def_32))) (let ((.def_46 (or .def_45 .def_24))) (let ((.def_47 (not .def_46))) (let ((.def_48 (not A2))) (let ((.def_49 (and A3 .def_48))) (let ((.def_50 (not .def_49))) (let ((.def_51 (or .def_48 .def_48))) (let ((.def_52 (and .def_51 .def_50))) (let ((.def_53 (* (- 1) x4))) (let ((.def_54 (+ .def_53 .def_28))) (let ((.def_55 (< .def_54 (- 1)))) (let ((.def_56 (or .def_55 .def_34))) (let ((.def_57 (not .def_56))) (let ((.def_58 (* (- 1) x1))) (let ((.def_59 (+ .def_53 .def_58))) (let ((.def_60 (< .def_59 1))) (let ((.def_61 (or .def_60 A7))) (let ((.def_62 (not .def_61))) (let ((.def_63 (and .def_62 .def_57))) (let ((.def_64 (not .def_63))) (let ((.def_65 (and .def_64 .def_52))) (let ((.def_66 (+ .def_11 .def_53))) (let ((.def_67 (< .def_66 (- 1)))) (let ((.def_68 (not .def_67))) (let ((.def_69 (= A4 .def_68))) (let ((.def_70 (* (- 1) x6))) (let ((.def_71 (+ .def_53 .def_70))) (let ((.def_72 (< .def_71 1))) (let ((.def_73 (not .def_72))) (let ((.def_74 (* (- 1) x9))) (let ((.def_75 (+ .def_58 .def_74))) (let ((.def_76 (< .def_75 (- 1)))) (let ((.def_77 (not .def_76))) (let ((.def_78 (or .def_77 .def_73))) (let ((.def_79 (and .def_78 .def_69))) (let ((.def_80 (not A9))) (let ((.def_81 (or .def_80 A2))) (let ((.def_82 (+ .def_28 .def_74))) (let ((.def_83 (< .def_82 (- 1)))) (let ((.def_84 (not .def_83))) (let ((.def_85 (* 1 x8))) (let ((.def_86 (+ .def_28 .def_85))) (let ((.def_87 (< .def_86 1))) (let ((.def_88 (not .def_87))) (let ((.def_89 (and .def_88 .def_84))) (let ((.def_90 (not .def_89))) (let ((.def_91 (or .def_90 .def_81))) (let ((.def_92 (or .def_91 .def_79))) (let ((.def_93 (and .def_92 .def_65))) (let ((.def_94 (or .def_93 .def_47))) (let ((.def_95 (not .def_94))) (let ((.def_96 (* 1 x2))) (let ((.def_97 (< .def_96 1))) (let ((.def_98 (or .def_97 A3))) (let ((.def_99 (not .def_98))) (let ((.def_100 (= .def_40 .def_14))) (let ((.def_101 (and .def_100 .def_99))) (let ((.def_102 (not .def_101))) (let ((.def_103 (* 1 x6))) (let ((.def_104 (< .def_103 1))) (let ((.def_105 (not .def_104))) (let ((.def_106 (or .def_105 .def_29))) (let ((.def_107 (< .def_11 (- 1)))) (let ((.def_108 (< .def_70 (- 1)))) (let ((.def_109 (not .def_108))) (let ((.def_110 (or .def_109 .def_107))) (let ((.def_111 (or .def_110 .def_106))) (let ((.def_112 (or .def_111 .def_102))) (let ((.def_113 (not .def_112))) (let ((.def_114 (* (- 1) x8))) (let ((.def_115 (< .def_114 (- 1)))) (let ((.def_116 (not .def_115))) (let ((.def_117 (+ .def_4 .def_33))) (let ((.def_118 (< .def_117 1))) (let ((.def_119 (and .def_118 .def_116))) (let ((.def_120 (* 1 x3))) (let ((.def_121 (+ .def_96 .def_120))) (let ((.def_122 (< .def_121 (- 1)))) (let ((.def_123 (not .def_122))) (let ((.def_124 (and .def_123 A8))) (let ((.def_125 (not .def_124))) (let ((.def_126 (or .def_125 .def_119))) (let ((.def_127 (not .def_126))) (let ((.def_128 (* (- 1) x5))) (let ((.def_129 (< .def_128 1))) (let ((.def_130 (and .def_129 .def_48))) (let ((.def_131 (< .def_85 1))) (let ((.def_132 (< .def_74 (- 1)))) (let ((.def_133 (not .def_132))) (let ((.def_134 (or .def_133 .def_131))) (let ((.def_135 (not .def_134))) (let ((.def_136 (and .def_135 .def_130))) (let ((.def_137 (not .def_136))) (let ((.def_138 (and .def_137 .def_127))) (let ((.def_139 (not .def_138))) (let ((.def_140 (or .def_139 .def_113))) (let ((.def_141 (< .def_120 1))) (let ((.def_142 (+ .def_28 .def_120))) (let ((.def_143 (< .def_142 (- 1)))) (let ((.def_144 (not .def_143))) (let ((.def_145 (and .def_144 .def_141))) (let ((.def_146 (not A6))) (let ((.def_147 (or .def_146 .def_40))) (let ((.def_148 (not .def_147))) (let ((.def_149 (or .def_148 .def_145))) (let ((.def_150 (< .def_53 1))) (let ((.def_151 (< .def_4 1))) (let ((.def_152 (and .def_151 .def_150))) (let ((.def_153 (not .def_152))) (let ((.def_154 (not A1))) (let ((.def_155 (+ .def_33 .def_114))) (let ((.def_156 (< .def_155 1))) (let ((.def_157 (not .def_156))) (let ((.def_158 (and .def_157 .def_154))) (let ((.def_159 (and .def_158 .def_153))) (let ((.def_160 (and .def_159 .def_149))) (let ((.def_161 (not .def_160))) (let ((.def_162 (not A8))) (let ((.def_163 (or .def_40 .def_162))) (let ((.def_164 (not .def_163))) (let ((.def_165 (or .def_0 A6))) (let ((.def_166 (not .def_165))) (let ((.def_167 (and .def_166 .def_164))) (let ((.def_168 (and .def_150 .def_40))) (let ((.def_169 (and .def_13 A6))) (let ((.def_170 (not .def_169))) (let ((.def_171 (and .def_170 .def_168))) (let ((.def_172 (or .def_171 .def_167))) (let ((.def_173 (and .def_172 .def_161))) (let ((.def_174 (and .def_173 .def_140))) (let ((.def_175 (not .def_174))) (let ((.def_176 (or .def_175 .def_95))) (let ((.def_177 (<= x9 1))) (let ((.def_178 (<= 0 x9))) (let ((.def_179 (<= x8 1))) (let ((.def_180 (<= 0 x8))) (let ((.def_181 (<= x7 1))) (let ((.def_182 (<= 0 x7))) (let ((.def_183 (<= x6 1))) (let ((.def_184 (<= 0 x6))) (let ((.def_185 (<= x5 1))) (let ((.def_186 (<= 0 x5))) (let ((.def_187 (<= x4 1))) (let ((.def_188 (<= 0 x4))) (let ((.def_189 (<= x3 1))) (let ((.def_190 (<= 0 x3))) (let ((.def_191 (<= x2 1))) (let ((.def_192 (<= 0 x2))) (let ((.def_193 (<= x1 1))) (let ((.def_194 (<= 0 x1))) (let ((.def_195 (<= x0 1))) (let ((.def_196 (<= 0 x0))) (let ((.def_197 (and .def_196 .def_195 .def_194 .def_193 .def_192 .def_191 .def_190 .def_189 .def_188 .def_187 .def_186 .def_185 .def_184 .def_183 .def_182 .def_181 .def_180 .def_179 .def_178 .def_177 .def_176))) .def_197)))))))))))))))))))))))))))))))))))))))))))))))))))))))))))))))))))))))))))))))))))))))))))))))))))))))))))))))))))))))))))))))))))))))))))))))))))))))))))))))))))))))))))))))))))))))))))))))))))))))
(check-sat)
